NAME: line_20_0
TYPE: TSP
COMMENT: line_20_0
DIMENSION: 20
EDGE_WEIGHT_TYPE: EUC_2D
NODE_COORD_SECTION
1 0.0 124.0
2 0.0 21.0
3 0.0 65.0
4 0.0 69.0
5 0.0 155.0
6 0.0 42.0
7 0.0 45.0
8 0.0 37.0
9 0.0 62.0
10 0.0 7.0
11 0.0 199.0
12 0.0 69.0
13 0.0 100.0
14 0.0 170.0
15 0.0 65.0
16 0.0 87.0
17 0.0 84.0
18 0.0 5.0
19 0.0 167.0
20 0.0 195.0
